data/processed_heuristic-threshold/instances/1/8/ds_1006_courier_87/pairwise.tsp
NAME: ds_1006_courier_87
TYPE: TSP
COMMENT: nil
DIMENSION: 9
EDGE_WEIGHT_TYPE: EXPLICIT
EDGE_WEIGHT_FORMAT: FULL_MATRIX
EDGE_WEIGHT_SECTION
9999 1231 1456 1573 1344 1163 1083 1377 512 
1231 9999 267 451 276 376 639 550 1122 
1456 267 9999 197 438 394 888 434 1386 
1573 451 197 9999 633 430 1082 351 1549 
1344 276 438 633 9999 652 493 813 1127 
1163 376 394 430 652 9999 935 248 1217 
1083 639 888 1082 493 935 9999 1161 722 
1377 550 434 351 813 248 1161 9999 1463 
512 1122 1386 1549 1127 1217 722 1463 9999 
