data/processed_heuristic-threshold/instances/1/8/ds_1006_courier_87/pairwise.sol
9
0 8 6 4 1 2 3 7 5 
